WARNING: for repeatability, setting FPU to use double precision
============================[ Problem Statistics ]=============================
|                                                                             |
|  Number of variables:            50                                         |
|  Number of clauses:             218                                         |
|  Parse time:                   0.00 s                                       |
|                                                                             |
============================[ Search Statistics ]==============================
| Conflicts |          ORIGINAL         |          LEARNT          | Progress |
|           |    Vars  Clauses Literals |    Limit  Clauses Lit/Cl |          |
===============================================================================
|       100 |      47      213      639 |       79       68      4 |  6.044 % |
===============================================================================
restarts              : 2
conflicts             : 116            (70775 /sec)
decisions             : 125            (0.00 % random) (76266 /sec)
propagations          : 1594           (972544 /sec)
conflict literals     : 446            (21.34 % deleted)
Memory used           : 20.00 MB
CPU time              : 0.001639 s

UNSATISFIABLE
